
Gurobi 10.0.1 (linux64) logging started Sun Nov 26 15:50:05 2023

Set parameter LogFile to value "ArtificialInstance/ExperimentV2/S2T5K3/AdRo/gurobiSpRo27.txt"
Gurobi Optimizer version 10.0.1 build v10.0.1rc0 (linux64)

CPU model: AMD EPYC 7H12 64-Core Processor, instruction set [SSE2|AVX|AVX2]
Thread count: 128 physical cores, 128 logical processors, using up to 32 threads

Academic license 656792 - for non-commercial use only - registered to b.___@student.vu.nl
Optimize a model with 16352 rows, 15139 columns and 58972 nonzeros
Model fingerprint: 0x6bad12e5
Variable types: 1 continuous, 15138 integer (15138 binary)
Coefficient statistics:
  Matrix range     [1e+00, 4e+01]
  Objective range  [1e+00, 2e+01]
  Bounds range     [1e+00, 1e+00]
  RHS range        [1e+00, 1e+00]
Presolve removed 9805 rows and 9127 columns
Presolve time: 0.18s
Presolved: 6547 rows, 6012 columns, 23389 nonzeros
Variable types: 1 continuous, 6011 integer (6011 binary)
Found heuristic solution: objective 95.6393601

Root relaxation: objective 7.085991e+01, 1005 iterations, 0.02 seconds (0.02 work units)

    Nodes    |    Current Node    |     Objective Bounds      |     Work
 Expl Unexpl |  Obj  Depth IntInf | Incumbent    BestBd   Gap | It/Node Time

*    0     0               0      70.8599077   70.85991  0.00%     -    0s

Explored 1 nodes (1005 simplex iterations) in 0.29 seconds (0.20 work units)
Thread count was 32 (of 128 available processors)

Solution count 2: 70.8599 95.6394 

Optimal solution found (tolerance 1.00e-04)
Best objective 7.085990765266e+01, best bound 7.085990765266e+01, gap 0.0000%
